100
150
100
99
98
98
98
97
97
97
96
96
96
95
95
95
94
93
93
93
92
91
91
88
88
87
87
86
85
85
84
82
81
79
79
79
78
78
77
77
76
76
75
73
73
73
73
72
72
72
71
70
69
68
67
66
65
65
64
63
62
61
61
60
60
59
59
57
56
55
54
54
53
53
52
51
50
50
50
49
49
48
48
47
47
47
46
45
45
45
44
38
35
35
35
34
34
34
33
33
31
31
